757
100
108 479
97 457
248 1304
47 252
25 122
71 406
63 339
80 413
68 292
115 474
55 223
266 1469
181 940
72 380
88 421
357 1855
113 472
49 270
270 1152
17 69
89 529
148 691
90 435
129 608
226 976
218 990
123 724
127 662
98 430
109 627
150 889
65 282
229 1175
34 179
112 553
265 1567
245 1177
57 245
171 745
27 136
109 554
70 355
134 736
78 364
298 1224
105 563
162 913
111 653
246 1238
100 537
149 886
257 1470
167 764
52 292
23 122
56 269
93 420
107 608
21 94
186 1005
59 287
144 764
168 1005
31 125
167 812
233 1245
103 456
130 662
127 712
14 84
92 403
21 108
242 1181
155 753
50 249
246 1280
152 693
58 307
37 221
109 454
95 395
75 349
299 1465
1 6
182 1027
91 427
164 827
150 659
246 1268
88 423
115 574
214 938
96 572
199 1129
74 313
84 465
329 1889
215 1154
102 479
37 156